RAW/CMTX/fspd-mid/CMT9X.vrp_seed-8.out
1160.682024	26.314	200.922
