RAW/CMTX/fspd-mid/CMT9X.vrp_seed-8.sol
Route #1: 63 17 147 92 42 93 65 107 44 137 37
Route #2: 139 47 56 146 149 4 109 144 12
Route #3: 60 26 113 114 99 43 86 97
Route #4: 108 52 15 45 91 72 33 124 123 71 90 103
Route #5: 5 10 54 39 89 117 73 106 125 122
Route #6: 100 2 83 131 20 59 3 101 22 51 32 77
Route #7: 38 62 9 34 74 75 105 30 104 49 76
Route #8: 46 102 6 57 23 69 7 61 112 48 138 27
Route #9: 18 55 134 67 13 136 41 66 111 135 143
Route #10: 148 141 94 40 88 64 19 150 87 142 145
Route #11: 78 130 50 118 21 79 29 129 53 127 16 126 11
Route #12: 68 132 98 24 96 95 25 58 14 133 110
Route #13: 116 121 115 36 85 35 84 128
Route #14: 119 1 120 80 70 28 31 82 140 8 81
Cost 1160.682024